data/mps_files/pEFS/81_7.mps
NAME foo
ROWS
 N  OBJ
 E  allocateEach[1]
 E  allocateAllCash
 G  findWorstP[1,2]
 G  findWorstP[1,3]
 G  findWorstP[1,4]
 G  findWorstP[1,5]
 G  findWorstP[2,1]
 G  findWorstP[2,3]
 G  findWorstP[2,4]
 G  findWorstP[2,5]
 G  findWorstP[3,1]
 G  findWorstP[3,2]
 G  findWorstP[3,4]
 G  findWorstP[3,5]
 G  findWorstP[4,1]
 G  findWorstP[4,2]
 G  findWorstP[4,3]
 G  findWorstP[4,5]
 G  findWorstP[5,1]
 G  findWorstP[5,2]
 G  findWorstP[5,3]
 G  findWorstP[5,4]
COLUMNS
    z         OBJ       1
    z         findWorstP[1,2]  1
    z         findWorstP[1,3]  1
    z         findWorstP[1,4]  1
    z         findWorstP[1,5]  1
    z         findWorstP[2,1]  1
    z         findWorstP[2,3]  1
    z         findWorstP[2,4]  1
    z         findWorstP[2,5]  1
    z         findWorstP[3,1]  1
    z         findWorstP[3,2]  1
    z         findWorstP[3,4]  1
    z         findWorstP[3,5]  1
    z         findWorstP[4,1]  1
    z         findWorstP[4,2]  1
    z         findWorstP[4,3]  1
    z         findWorstP[4,5]  1
    z         findWorstP[5,1]  1
    z         findWorstP[5,2]  1
    z         findWorstP[5,3]  1
    z         findWorstP[5,4]  1
    cashProportion[1]  allocateAllCash  1
    cashProportion[1]  findWorstP[1,2]  4.2120042120042123e-01
    cashProportion[1]  findWorstP[1,3]  4.2120042120042123e-01
    cashProportion[1]  findWorstP[1,4]  4.2120042120042123e-01
    cashProportion[1]  findWorstP[1,5]  4.2120042120042123e-01
    cashProportion[1]  findWorstP[2,1]  -5.5949272659455440e-01
    cashProportion[1]  findWorstP[3,1]  -5.6700056700056711e-01
    cashProportion[1]  findWorstP[4,1]  -4.7341013097680296e-01
    cashProportion[1]  findWorstP[5,1]  -5.9335443037974689e-01
    cashProportion[2]  allocateAllCash  1
    cashProportion[2]  findWorstP[1,2]  -4.2120042120042123e-01
    cashProportion[2]  findWorstP[2,1]  5.5949272659455440e-01
    cashProportion[2]  findWorstP[2,3]  5.5949272659455440e-01
    cashProportion[2]  findWorstP[2,4]  5.5949272659455440e-01
    cashProportion[2]  findWorstP[2,5]  5.5949272659455440e-01
    cashProportion[2]  findWorstP[3,2]  -5.6700056700056711e-01
    cashProportion[2]  findWorstP[4,2]  -4.7341013097680296e-01
    cashProportion[2]  findWorstP[5,2]  -5.9335443037974689e-01
    cashProportion[3]  allocateAllCash  1
    cashProportion[3]  findWorstP[1,3]  -4.2120042120042123e-01
    cashProportion[3]  findWorstP[2,3]  -5.5949272659455440e-01
    cashProportion[3]  findWorstP[3,1]  5.6700056700056711e-01
    cashProportion[3]  findWorstP[3,2]  5.6700056700056711e-01
    cashProportion[3]  findWorstP[3,4]  5.6700056700056711e-01
    cashProportion[3]  findWorstP[3,5]  5.6700056700056711e-01
    cashProportion[3]  findWorstP[4,3]  -4.7341013097680296e-01
    cashProportion[3]  findWorstP[5,3]  -5.9335443037974689e-01
    cashProportion[4]  allocateAllCash  1
    cashProportion[4]  findWorstP[1,4]  -4.2120042120042123e-01
    cashProportion[4]  findWorstP[2,4]  -5.5949272659455440e-01
    cashProportion[4]  findWorstP[3,4]  -5.6700056700056711e-01
    cashProportion[4]  findWorstP[4,1]  4.7341013097680296e-01
    cashProportion[4]  findWorstP[4,2]  4.7341013097680296e-01
    cashProportion[4]  findWorstP[4,3]  4.7341013097680296e-01
    cashProportion[4]  findWorstP[4,5]  4.7341013097680296e-01
    cashProportion[4]  findWorstP[5,4]  -5.9335443037974689e-01
    cashProportion[5]  allocateAllCash  1
    cashProportion[5]  findWorstP[1,5]  -4.2120042120042123e-01
    cashProportion[5]  findWorstP[2,5]  -5.5949272659455440e-01
    cashProportion[5]  findWorstP[3,5]  -5.6700056700056711e-01
    cashProportion[5]  findWorstP[4,5]  -4.7341013097680296e-01
    cashProportion[5]  findWorstP[5,1]  5.9335443037974689e-01
    cashProportion[5]  findWorstP[5,2]  5.9335443037974689e-01
    cashProportion[5]  findWorstP[5,3]  5.9335443037974689e-01
    cashProportion[5]  findWorstP[5,4]  5.9335443037974689e-01
    MARKER    'MARKER'                 'INTORG'
    x[1,1]    allocateEach[1]  1
    x[1,1]    findWorstP[1,2]  5.7879957879957877e-01
    x[1,1]    findWorstP[1,3]  5.7879957879957877e-01
    x[1,1]    findWorstP[1,4]  5.7879957879957877e-01
    x[1,1]    findWorstP[1,5]  5.7879957879957877e-01
    x[1,1]    findWorstP[2,1]  -4.4050727340544571e-01
    x[1,1]    findWorstP[3,1]  -0.432999432999433
    x[1,1]    findWorstP[4,1]  -0.526589869023197
    x[1,1]    findWorstP[5,1]  -4.0664556962025317e-01
    x[2,1]    allocateEach[1]  1
    x[2,1]    findWorstP[1,2]  -5.7879957879957877e-01
    x[2,1]    findWorstP[2,1]  4.4050727340544571e-01
    x[2,1]    findWorstP[2,3]  4.4050727340544571e-01
    x[2,1]    findWorstP[2,4]  4.4050727340544571e-01
    x[2,1]    findWorstP[2,5]  4.4050727340544571e-01
    x[2,1]    findWorstP[3,2]  -0.432999432999433
    x[2,1]    findWorstP[4,2]  -0.526589869023197
    x[2,1]    findWorstP[5,2]  -4.0664556962025317e-01
    x[3,1]    allocateEach[1]  1
    x[3,1]    findWorstP[1,3]  -5.7879957879957877e-01
    x[3,1]    findWorstP[2,3]  -4.4050727340544571e-01
    x[3,1]    findWorstP[3,1]  0.432999432999433
    x[3,1]    findWorstP[3,2]  0.432999432999433
    x[3,1]    findWorstP[3,4]  0.432999432999433
    x[3,1]    findWorstP[3,5]  0.432999432999433
    x[3,1]    findWorstP[4,3]  -0.526589869023197
    x[3,1]    findWorstP[5,3]  -4.0664556962025317e-01
    x[4,1]    allocateEach[1]  1
    x[4,1]    findWorstP[1,4]  -5.7879957879957877e-01
    x[4,1]    findWorstP[2,4]  -4.4050727340544571e-01
    x[4,1]    findWorstP[3,4]  -0.432999432999433
    x[4,1]    findWorstP[4,1]  0.526589869023197
    x[4,1]    findWorstP[4,2]  0.526589869023197
    x[4,1]    findWorstP[4,3]  0.526589869023197
    x[4,1]    findWorstP[4,5]  0.526589869023197
    x[4,1]    findWorstP[5,4]  -4.0664556962025317e-01
    x[5,1]    allocateEach[1]  1
    x[5,1]    findWorstP[1,5]  -5.7879957879957877e-01
    x[5,1]    findWorstP[2,5]  -4.4050727340544571e-01
    x[5,1]    findWorstP[3,5]  -0.432999432999433
    x[5,1]    findWorstP[4,5]  -0.526589869023197
    x[5,1]    findWorstP[5,1]  4.0664556962025317e-01
    x[5,1]    findWorstP[5,2]  4.0664556962025317e-01
    x[5,1]    findWorstP[5,3]  4.0664556962025317e-01
    x[5,1]    findWorstP[5,4]  4.0664556962025317e-01
    MARKER    'MARKER'                 'INTEND'
RHS
    RHS1      allocateEach[1]  1
    RHS1      allocateAllCash  1
BOUNDS
 UP BND1      z         1
 MI BND1      cashProportion[1]
 UP BND1      cashProportion[1]  1
 MI BND1      cashProportion[2]
 UP BND1      cashProportion[2]  1
 MI BND1      cashProportion[3]
 UP BND1      cashProportion[3]  1
 MI BND1      cashProportion[4]
 UP BND1      cashProportion[4]  1
 MI BND1      cashProportion[5]
 UP BND1      cashProportion[5]  1
 BV BND1      x[1,1]  
 BV BND1      x[2,1]  
 BV BND1      x[3,1]  
 BV BND1      x[4,1]  
 BV BND1      x[5,1]  
ENDATA
